55984
16, 10, 22, 29, 21, 23, 26, 49, 55, 28, 3, 6, 43, 40, 51, 37, 7, 20, 24, 50, 35, 5, 13, 41, 32, 8, 38, 44, 19, 48, 17, 53, 34, 54, 47, 4, 30, 18, 12, 9, 14, 2, 45, 42, 33, 27, 1, 31, 25, 11, 52, 15, 46, 36, 39
